CapLotSizing_PM/src/Instancias/NCHSHT/25i6p2m/NBA08.OUT
 CG ITER, OVMR, OVMRUB =           1   64871.9921875   64871.9843750
 CG ITER, OVMR, OVMRUB =           2   64871.9882812   64871.9843750
 CG ITER, OVMR, OVMRUB =           3   64569.5664062   64871.9843750
 CG ITER, OVMR, OVMRUB =           4   56865.5781250   64871.9843750
 CG ITER, OVMR, OVMRUB =           5   55456.6289062   62048.7968750
 CG ITER, OVMR, OVMRUB =           6   55087.1757812   62048.7968750
 CG ITER, OVMR, OVMRUB =           7   55032.5468750   62048.7968750
 CG ITER, OVMR, OVMRUB =           8   54862.1757812   62048.7968750
 CG ITER, OVMR, OVMRUB =           9   54722.4843750   62048.7968750
 CG ITER, OVMR, OVMRUB =          10   54540.1171875   62048.7968750
 CG ITER, OVMR, OVMRUB =          11   54354.9687500   62048.7968750
 CG ITER, OVMR, OVMRUB =          12   54269.0390625   62048.7968750
 CG ITER, OVMR, OVMRUB =          13   54180.6250000   62048.7968750
 CG ITER, OVMR, OVMRUB =          14   54024.7539062   62048.7968750
 CG ITER, OVMR, OVMRUB =          15   53928.8398438   62048.7968750
 CG ITER, OVMR, OVMRUB =          16   53827.9531250   62048.7968750
 CG ITER, OVMR, OVMRUB =          17   53699.6445312   62048.7968750
 CG ITER, OVMR, OVMRUB =          18   53602.3437500   62048.7968750
 CG ITER, OVMR, OVMRUB =          19   53485.2929688   62048.7968750
 CG ITER, OVMR, OVMRUB =          20   53420.6601562   62048.7968750
 CG ITER, OVMR, OVMRUB =          21   53371.4179688   62048.7968750
 CG ITER, OVMR, OVMRUB =          22   53272.0390625   62048.7968750
 CG ITER, OVMR, OVMRUB =          23   53238.8906250   62048.7968750
 CG ITER, OVMR, OVMRUB =          24   53185.1015625   62048.7968750
 CG ITER, OVMR, OVMRUB =          25   53140.6875000   58103.8476562
 CG ITER, OVMR, OVMRUB =          26   53104.8046875   58103.8476562
 CG ITER, OVMR, OVMRUB =          27   53061.2187500   58103.8476562
 CG ITER, OVMR, OVMRUB =          28   53021.7226562   58103.8476562
 CG ITER, OVMR, OVMRUB =          29   52978.6210938   58103.8476562
 CG ITER, OVMR, OVMRUB =          30   52952.5937500   58103.8476562
 CG ITER, OVMR, OVMRUB =          31   52894.5234375   58103.8476562
 CG ITER, OVMR, OVMRUB =          32   52870.9960938   58103.8476562
 CG ITER, OVMR, OVMRUB =          33   52860.0859375   58103.8476562
 CG ITER, OVMR, OVMRUB =          34   52823.0976562   58103.8476562
 CG ITER, OVMR, OVMRUB =          35   52816.7304688   58103.8476562
 CG ITER, OVMR, OVMRUB =          36   52789.8320312   58103.8476562
 CG ITER, OVMR, OVMRUB =          37   52767.9609375   58103.8476562
 CG ITER, OVMR, OVMRUB =          38   52759.1210938   58103.8476562
 CG ITER, OVMR, OVMRUB =          39   52757.1289062   58103.8476562
 CG ITER, OVMR, OVMRUB =          40   52738.4414062   58103.8476562
 CG ITER, OVMR, OVMRUB =          41   52728.7539062   58103.8476562
 CG ITER, OVMR, OVMRUB =          42   52726.4765625   58103.8476562
 CG ITER, OVMR, OVMRUB =          43   52706.6562500   58103.8476562
 CG ITER, OVMR, OVMRUB =          44   52697.1562500   58103.8476562
 CG ITER, OVMR, OVMRUB =          45   52701.0937500   58103.8476562
 CG ITER, OVMR, OVMRUB =          46   52700.6757812   56229.1132812
 CG ITER, OVMR, OVMRUB =          47   52691.8632812   56229.1132812
 CG ITER, OVMR, OVMRUB =          48   52693.7968750   56229.1132812
 CG ITER, OVMR, OVMRUB =          49   52690.1328125   56229.1132812
 CG ITER, OVMR, OVMRUB =          50   52683.5117188   56229.1132812
 CG ITER, OVMR, OVMRUB =          51   52687.7460938   56229.1132812
 CG ITER, OVMR, OVMRUB =          52   52688.2382812   56229.1132812
 CG ITER, OVMR, OVMRUB =          53   52677.8867188   56229.1132812
 CG ITER, OVMR, OVMRUB =          54   52671.9960938   56229.1132812
 CG ITER, OVMR, OVMRUB =          55   52670.3007812   56229.1132812
 CG ITER, OVMR, OVMRUB =          56   52669.4531250   56229.1132812
 CG ITER, OVMR, OVMRUB =          57   52667.9101562   56229.1132812
 CG ITER, OVMR, OVMRUB =          58   52666.2656250   56229.1132812
 CG ITER, OVMR, OVMRUB =          59   52664.1250000   56229.1132812
 CG ITER, OVMR, OVMRUB =          60   52665.2695312   56229.1132812
 CG ITER, OVMR, OVMRUB =          61   52665.1406250   56229.1132812
 CG ITER, OVMR, OVMRUB =          62   52663.4570312   56229.1132812
 CG ITER, OVMR, OVMRUB =          63   52664.5507812   56229.1132812
 CG ITER, OVMR, OVMRUB =          64   52664.6718750   56229.1132812
 CG ITER, OVMR, OVMRUB =          65   52664.4531250   54293.0937500
 CG ITER, OVMR, OVMRUB =          66   52664.3164062   54293.0937500
 CG ITER, OVMR, OVMRUB =          67   52664.2773438   54293.0937500
 CG ITER, OVMR, OVMRUB =          68   52664.5273438   54293.0937500
 CG ITER, OVMR, OVMRUB =          69   52663.8789062   54293.0937500
 CG ITER, OVMR, OVMRUB =          70   52663.8789062   54293.0937500
OVLB =   52663.8789062 OVLUB =   54293.0937500 TIME =      17.2900009
